unsat
(:added-eqs                   4093686
 :arith-eq-adapter            3855
 :arith-bound-propagations-lp 11159
 :arith-conflicts             274
 :arith-diseq                 323927
 :arith-fixed-eqs             392925
 :arith-lower                 235619
 :arith-make-feasible         91532
 :arith-max-columns           1457
 :arith-max-rows              856
 :arith-offset-eqs            147450
 :arith-upper                 432611
 :binary-propagations         15594275
 :conflicts                   32784
 :decisions                   1775007
 :del-clause                  40634
 :elim-unconstrained          2
 :max-memory                  56.17
 :memory                      34.11
 :minimized-lits              410314
 :mk-bool-var                 23610
 :mk-clause                   46808
 :mk-clause-binary            65321
 :num-allocs                  702870646
 :num-checks                  1
 :propagations                21637952
 :restarts                    176
 :rlimit-count                60558344
 :time                        20.96
 :total-time                  21.10)
